2
4
20
1 1.3 1.55 1.75 2.1
18 29 39 47 48 15 18 28 9 16 45 13 13 42 11 37 39 49 12 39 24 31 29 43 47 47 33 41 47 42 29 44 12 32 20 35 36 18 12 42 47 20 19 41 16 23 30 34 24 13 45 14 6 46 49 7 5 24 47 21 49 48 28 34 30 25 36 48 36 30 9 44 21 16 8 8 22 45 21 44 